100
120
100
100
97
96
95
95
93
93
92
90
90
90
89
88
88
87
85
84
82
78
78
78
78
77
74
74
70
69
68
67
67
66
66
65
61
60
60
59
57
56
55
55
54
54
52
52
51
51
50
50
49
48
48
48
47
44
43
41
41
40
39
37
37
32
32
31
30
30
29
28
27
26
25
24
24
24
23
23
22
21
19
18
18
17
16
15
14
12
10
10
8
6
5
4
3
3
2
2
2
1
